
Gurobi 10.0.1 (win64) logging started Fri Jun  2 12:25:29 2023

Set parameter LogFile to value "results/log/Fattahi_setup_10_modified_deadline.log"
Gurobi Optimizer version 10.0.1 build v10.0.1rc0 (win64)

CPU model: AMD Ryzen 7 3700X 8-Core Processor, instruction set [SSE2|AVX|AVX2]
Thread count: 8 physical cores, 16 logical processors, using up to 16 threads

Optimize a model with 178 rows, 205 columns and 553 nonzeros
Model fingerprint: 0x9c7a03ab
Model has 1 quadratic constraint
Variable types: 0 continuous, 205 integer (184 binary)
Coefficient statistics:
  Matrix range     [1e+00, 1e+09]
  QMatrix range    [1e+00, 1e+00]
  QLMatrix range   [1e+00, 1e+02]
  Objective range  [1e+00, 1e+00]
  Bounds range     [1e+00, 1e+00]
  RHS range        [1e+00, 3e+09]
Warning: Model contains large matrix coefficients
Warning: Model contains large rhs
         Consider reformulating model or setting NumericFocus parameter
         to avoid numerical issues.
Presolve removed 80 rows and 150 columns
Presolve time: 0.00s
Presolved: 111 rows, 73 columns, 407 nonzeros
Presolved model has 12 SOS constraint(s)
Variable types: 0 continuous, 73 integer (40 binary)

Root relaxation: objective 1.237000e+03, 30 iterations, 0.00 seconds (0.00 work units)

    Nodes    |    Current Node    |     Objective Bounds      |     Work
 Expl Unexpl |  Obj  Depth IntInf | Incumbent    BestBd   Gap | It/Node Time

     0     0 1237.00000    0    9          - 1237.00000      -     -    0s
H    0     0                    1873.0000000 1237.00000  34.0%     -    0s
     0     0 1272.00000    0    7 1873.00000 1272.00000  32.1%     -    0s
H    0     0                    1815.0000000 1272.00000  29.9%     -    0s
     0     0 1341.75645    0    8 1815.00000 1341.75645  26.1%     -    0s
     0     0 1341.75645    0    8 1815.00000 1341.75645  26.1%     -    0s
H    0     0                    1694.0000000 1341.75645  20.8%     -    0s
H    0     0                    1636.0000000 1341.75645  18.0%     -    0s
H    0     0                    1621.0000000 1341.75645  17.2%     -    0s
     0     0 1359.79692    0   12 1621.00000 1359.79692  16.1%     -    0s
     0     2 1359.79692    0    7 1621.00000 1359.79692  16.1%     -    0s
H   28    18                    1618.0000000 1359.79692  16.0%   3.2    0s
H   42    20                    1617.0000000 1359.79692  15.9%   2.8    0s
H   77    19                    1599.0000000 1359.79692  15.0%   2.4    0s

Cutting planes:
  Implied bound: 1
  Flow cover: 5

Explored 201 nodes (514 simplex iterations) in 0.04 seconds (0.01 work units)
Thread count was 16 (of 16 available processors)

Solution count 8: 1599 1617 1618 ... 1873

Optimal solution found (tolerance 1.00e-04)
Best objective 1.599000000000e+03, best bound 1.599000000000e+03, gap 0.0000%
Warning: variable name "y[job:0, stage:0, machine:1]" has a space
Warning: constraint name "precedence between 1,0 to 0,0 if x_[j,l,h,z,i]=1" has a space
Warning: to let Gurobi read it back, use rlp format
Warning: variable name "y[job:0, stage:0, machine:1]" has a space
Warning: constraint name "precedence between 1,0 to 0,0 if x_[j,l,h,z,i]=1" has a space
Warning: default variable names used to write mps file
Warning: default constraint names used to write mps file
Warning: variable name "y[job:0, stage:0, machine:1]" has a space
Warning: default variable names used to write solution file
